s td 37 14 50
b 1 27 37
b 2 2 5 17
b 3 5 7 17
b 4 3 9 39
b 5 16 29 36
b 6 5 6 17
b 7 4 18 27 36
b 8 14 26 36 44
b 9 19 31 32 38
b 10 23 31 40 41
b 11 18 23 36 42
b 12 1 8 13 15 22 23 26 31 33 34 35 39 44 49
b 13 6 13 15 22 23 26 31 34 49
b 14 5 6 13 23 26 31 49
b 15 1 8 13 15 23 26 34 35 39 44 47 49
b 16 8 9 13 15 23 26 34 35 39 44 47
b 17 8 9 13 15 23 26 34 35 44 48
b 18 8 23 24 26 34 35 44 48
b 19 8 20 23 24 26 34 44
b 20 8 20 26 30
b 21 1 8 15 22 23 26 31 32 33 34 39 44 49
b 22 8 10 22 23 32 33 44 49
b 23 8 10 21 23 44
b 24 8 15 19 31 32 44
b 25 1 26 32 43 44
b 26 23 32 33 34 39 50
b 27 8 11 13 15 23 26 31 33 34 35 39 44 49
b 28 11 12 13 34 39 49
b 29 8 11 13 23 26 29 31 33 34 35 39 44
b 30 11 13 23 26 29 33 34 35 39 44 46
b 31 13 23 26 29 35 36 39 44 46
b 32 13 23 26 27 35 36 46
b 33 18 23 27 35 36
b 34 13 27 36 45
b 35 25 36 39 46
b 36 11 28 34 44 46
b 37 23 29 31 33 40
1 32
2 6
3 6
4 16
5 31
6 14
7 33
8 31
9 24
10 37
11 33
12 13
12 15
12 21
12 27
13 14
15 16
16 17
17 18
18 19
19 20
21 22
21 24
21 25
21 26
22 23
27 28
27 29
29 30
29 37
30 31
30 36
31 32
31 35
32 33
32 34
